c 3-Coloring of graph with 50 vertices, 291 edges
c Variable x[v][c] = vertex v has color c  (v=0..49, c=0..2)
c Variable number: v*3 + c + 1
c SAT Competition 2026 — Experimental Track — LLM-Guided SAT Solver
c Difficulty: hard
p cnf 150 1073
1 2 3 0
4 5 6 0
7 8 9 0
10 11 12 0
13 14 15 0
16 17 18 0
19 20 21 0
22 23 24 0
25 26 27 0
28 29 30 0
31 32 33 0
34 35 36 0
37 38 39 0
40 41 42 0
43 44 45 0
46 47 48 0
49 50 51 0
52 53 54 0
55 56 57 0
58 59 60 0
61 62 63 0
64 65 66 0
67 68 69 0
70 71 72 0
73 74 75 0
76 77 78 0
79 80 81 0
82 83 84 0
85 86 87 0
88 89 90 0
91 92 93 0
94 95 96 0
97 98 99 0
100 101 102 0
103 104 105 0
106 107 108 0
109 110 111 0
112 113 114 0
115 116 117 0
118 119 120 0
121 122 123 0
124 125 126 0
127 128 129 0
130 131 132 0
133 134 135 0
136 137 138 0
139 140 141 0
142 143 144 0
145 146 147 0
148 149 150 0
-1 -2 0
-1 -3 0
-2 -3 0
-4 -5 0
-4 -6 0
-5 -6 0
-7 -8 0
-7 -9 0
-8 -9 0
-10 -11 0
-10 -12 0
-11 -12 0
-13 -14 0
-13 -15 0
-14 -15 0
-16 -17 0
-16 -18 0
-17 -18 0
-19 -20 0
-19 -21 0
-20 -21 0
-22 -23 0
-22 -24 0
-23 -24 0
-25 -26 0
-25 -27 0
-26 -27 0
-28 -29 0
-28 -30 0
-29 -30 0
-31 -32 0
-31 -33 0
-32 -33 0
-34 -35 0
-34 -36 0
-35 -36 0
-37 -38 0
-37 -39 0
-38 -39 0
-40 -41 0
-40 -42 0
-41 -42 0
-43 -44 0
-43 -45 0
-44 -45 0
-46 -47 0
-46 -48 0
-47 -48 0
-49 -50 0
-49 -51 0
-50 -51 0
-52 -53 0
-52 -54 0
-53 -54 0
-55 -56 0
-55 -57 0
-56 -57 0
-58 -59 0
-58 -60 0
-59 -60 0
-61 -62 0
-61 -63 0
-62 -63 0
-64 -65 0
-64 -66 0
-65 -66 0
-67 -68 0
-67 -69 0
-68 -69 0
-70 -71 0
-70 -72 0
-71 -72 0
-73 -74 0
-73 -75 0
-74 -75 0
-76 -77 0
-76 -78 0
-77 -78 0
-79 -80 0
-79 -81 0
-80 -81 0
-82 -83 0
-82 -84 0
-83 -84 0
-85 -86 0
-85 -87 0
-86 -87 0
-88 -89 0
-88 -90 0
-89 -90 0
-91 -92 0
-91 -93 0
-92 -93 0
-94 -95 0
-94 -96 0
-95 -96 0
-97 -98 0
-97 -99 0
-98 -99 0
-100 -101 0
-100 -102 0
-101 -102 0
-103 -104 0
-103 -105 0
-104 -105 0
-106 -107 0
-106 -108 0
-107 -108 0
-109 -110 0
-109 -111 0
-110 -111 0
-112 -113 0
-112 -114 0
-113 -114 0
-115 -116 0
-115 -117 0
-116 -117 0
-118 -119 0
-118 -120 0
-119 -120 0
-121 -122 0
-121 -123 0
-122 -123 0
-124 -125 0
-124 -126 0
-125 -126 0
-127 -128 0
-127 -129 0
-128 -129 0
-130 -131 0
-130 -132 0
-131 -132 0
-133 -134 0
-133 -135 0
-134 -135 0
-136 -137 0
-136 -138 0
-137 -138 0
-139 -140 0
-139 -141 0
-140 -141 0
-142 -143 0
-142 -144 0
-143 -144 0
-145 -146 0
-145 -147 0
-146 -147 0
-148 -149 0
-148 -150 0
-149 -150 0
-1 -4 0
-2 -5 0
-3 -6 0
-1 -19 0
-2 -20 0
-3 -21 0
-1 -25 0
-2 -26 0
-3 -27 0
-1 -34 0
-2 -35 0
-3 -36 0
-1 -49 0
-2 -50 0
-3 -51 0
-1 -55 0
-2 -56 0
-3 -57 0
-1 -58 0
-2 -59 0
-3 -60 0
-1 -61 0
-2 -62 0
-3 -63 0
-1 -64 0
-2 -65 0
-3 -66 0
-1 -67 0
-2 -68 0
-3 -69 0
-1 -73 0
-2 -74 0
-3 -75 0
-1 -103 0
-2 -104 0
-3 -105 0
-1 -115 0
-2 -116 0
-3 -117 0
-1 -118 0
-2 -119 0
-3 -120 0
-1 -121 0
-2 -122 0
-3 -123 0
-1 -145 0
-2 -146 0
-3 -147 0
-4 -19 0
-5 -20 0
-6 -21 0
-4 -37 0
-5 -38 0
-6 -39 0
-4 -58 0
-5 -59 0
-6 -60 0
-4 -64 0
-5 -65 0
-6 -66 0
-4 -67 0
-5 -68 0
-6 -69 0
-4 -70 0
-5 -71 0
-6 -72 0
-4 -73 0
-5 -74 0
-6 -75 0
-4 -82 0
-5 -83 0
-6 -84 0
-4 -91 0
-5 -92 0
-6 -93 0
-4 -106 0
-5 -107 0
-6 -108 0
-4 -118 0
-5 -119 0
-6 -120 0
-4 -139 0
-5 -140 0
-6 -141 0
-4 -142 0
-5 -143 0
-6 -144 0
-7 -16 0
-8 -17 0
-9 -18 0
-7 -28 0
-8 -29 0
-9 -30 0
-7 -31 0
-8 -32 0
-9 -33 0
-7 -37 0
-8 -38 0
-9 -39 0
-7 -49 0
-8 -50 0
-9 -51 0
-7 -55 0
-8 -56 0
-9 -57 0
-7 -58 0
-8 -59 0
-9 -60 0
-7 -61 0
-8 -62 0
-9 -63 0
-7 -115 0
-8 -116 0
-9 -117 0
-7 -124 0
-8 -125 0
-9 -126 0
-7 -133 0
-8 -134 0
-9 -135 0
-7 -136 0
-8 -137 0
-9 -138 0
-7 -139 0
-8 -140 0
-9 -141 0
-7 -145 0
-8 -146 0
-9 -147 0
-10 -28 0
-11 -29 0
-12 -30 0
-10 -46 0
-11 -47 0
-12 -48 0
-10 -52 0
-11 -53 0
-12 -54 0
-10 -70 0
-11 -71 0
-12 -72 0
-10 -88 0
-11 -89 0
-12 -90 0
-10 -112 0
-11 -113 0
-12 -114 0
-10 -142 0
-11 -143 0
-12 -144 0
-13 -22 0
-14 -23 0
-15 -24 0
-13 -25 0
-14 -26 0
-15 -27 0
-13 -28 0
-14 -29 0
-15 -30 0
-13 -46 0
-14 -47 0
-15 -48 0
-13 -76 0
-14 -77 0
-15 -78 0
-13 -82 0
-14 -83 0
-15 -84 0
-13 -91 0
-14 -92 0
-15 -93 0
-13 -97 0
-14 -98 0
-15 -99 0
-13 -103 0
-14 -104 0
-15 -105 0
-13 -142 0
-14 -143 0
-15 -144 0
-13 -148 0
-14 -149 0
-15 -150 0
-16 -19 0
-17 -20 0
-18 -21 0
-16 -37 0
-17 -38 0
-18 -39 0
-16 -67 0
-17 -68 0
-18 -69 0
-16 -70 0
-17 -71 0
-18 -72 0
-16 -76 0
-17 -77 0
-18 -78 0
-16 -79 0
-17 -80 0
-18 -81 0
-16 -91 0
-17 -92 0
-18 -93 0
-16 -97 0
-17 -98 0
-18 -99 0
-16 -103 0
-17 -104 0
-18 -105 0
-16 -109 0
-17 -110 0
-18 -111 0
-16 -115 0
-17 -116 0
-18 -117 0
-16 -136 0
-17 -137 0
-18 -138 0
-16 -142 0
-17 -143 0
-18 -144 0
-16 -148 0
-17 -149 0
-18 -150 0
-19 -25 0
-20 -26 0
-21 -27 0
-19 -28 0
-20 -29 0
-21 -30 0
-19 -37 0
-20 -38 0
-21 -39 0
-19 -61 0
-20 -62 0
-21 -63 0
-19 -73 0
-20 -74 0
-21 -75 0
-19 -82 0
-20 -83 0
-21 -84 0
-19 -100 0
-20 -101 0
-21 -102 0
-19 -103 0
-20 -104 0
-21 -105 0
-19 -115 0
-20 -116 0
-21 -117 0
-19 -121 0
-20 -122 0
-21 -123 0
-19 -136 0
-20 -137 0
-21 -138 0
-22 -25 0
-23 -26 0
-24 -27 0
-22 -97 0
-23 -98 0
-24 -99 0
-22 -100 0
-23 -101 0
-24 -102 0
-22 -103 0
-23 -104 0
-24 -105 0
-22 -109 0
-23 -110 0
-24 -111 0
-22 -112 0
-23 -113 0
-24 -114 0
-22 -115 0
-23 -116 0
-24 -117 0
-22 -124 0
-23 -125 0
-24 -126 0
-22 -133 0
-23 -134 0
-24 -135 0
-22 -142 0
-23 -143 0
-24 -144 0
-25 -28 0
-26 -29 0
-27 -30 0
-25 -43 0
-26 -44 0
-27 -45 0
-25 -55 0
-26 -56 0
-27 -57 0
-25 -61 0
-26 -62 0
-27 -63 0
-25 -79 0
-26 -80 0
-27 -81 0
-25 -91 0
-26 -92 0
-27 -93 0
-25 -94 0
-26 -95 0
-27 -96 0
-25 -100 0
-26 -101 0
-27 -102 0
-25 -112 0
-26 -113 0
-27 -114 0
-25 -115 0
-26 -116 0
-27 -117 0
-25 -118 0
-26 -119 0
-27 -120 0
-25 -121 0
-26 -122 0
-27 -123 0
-25 -130 0
-26 -131 0
-27 -132 0
-25 -139 0
-26 -140 0
-27 -141 0
-28 -34 0
-29 -35 0
-30 -36 0
-28 -40 0
-29 -41 0
-30 -42 0
-28 -55 0
-29 -56 0
-30 -57 0
-28 -82 0
-29 -83 0
-30 -84 0
-28 -97 0
-29 -98 0
-30 -99 0
-28 -136 0
-29 -137 0
-30 -138 0
-31 -37 0
-32 -38 0
-33 -39 0
-31 -49 0
-32 -50 0
-33 -51 0
-31 -64 0
-32 -65 0
-33 -66 0
-31 -79 0
-32 -80 0
-33 -81 0
-31 -106 0
-32 -107 0
-33 -108 0
-31 -130 0
-32 -131 0
-33 -132 0
-31 -133 0
-32 -134 0
-33 -135 0
-34 -40 0
-35 -41 0
-36 -42 0
-34 -46 0
-35 -47 0
-36 -48 0
-34 -52 0
-35 -53 0
-36 -54 0
-34 -64 0
-35 -65 0
-36 -66 0
-34 -70 0
-35 -71 0
-36 -72 0
-34 -88 0
-35 -89 0
-36 -90 0
-34 -130 0
-35 -131 0
-36 -132 0
-34 -148 0
-35 -149 0
-36 -150 0
-37 -40 0
-38 -41 0
-39 -42 0
-37 -46 0
-38 -47 0
-39 -48 0
-37 -67 0
-38 -68 0
-39 -69 0
-37 -70 0
-38 -71 0
-39 -72 0
-37 -97 0
-38 -98 0
-39 -99 0
-37 -103 0
-38 -104 0
-39 -105 0
-37 -106 0
-38 -107 0
-39 -108 0
-37 -130 0
-38 -131 0
-39 -132 0
-37 -133 0
-38 -134 0
-39 -135 0
-37 -136 0
-38 -137 0
-39 -138 0
-37 -145 0
-38 -146 0
-39 -147 0
-37 -148 0
-38 -149 0
-39 -150 0
-40 -46 0
-41 -47 0
-42 -48 0
-40 -64 0
-41 -65 0
-42 -66 0
-40 -85 0
-41 -86 0
-42 -87 0
-40 -100 0
-41 -101 0
-42 -102 0
-40 -103 0
-41 -104 0
-42 -105 0
-40 -121 0
-41 -122 0
-42 -123 0
-40 -139 0
-41 -140 0
-42 -141 0
-40 -142 0
-41 -143 0
-42 -144 0
-43 -46 0
-44 -47 0
-45 -48 0
-43 -49 0
-44 -50 0
-45 -51 0
-43 -55 0
-44 -56 0
-45 -57 0
-43 -67 0
-44 -68 0
-45 -69 0
-43 -70 0
-44 -71 0
-45 -72 0
-43 -73 0
-44 -74 0
-45 -75 0
-43 -85 0
-44 -86 0
-45 -87 0
-43 -94 0
-44 -95 0
-45 -96 0
-43 -103 0
-44 -104 0
-45 -105 0
-43 -112 0
-44 -113 0
-45 -114 0
-43 -139 0
-44 -140 0
-45 -141 0
-46 -55 0
-47 -56 0
-48 -57 0
-46 -58 0
-47 -59 0
-48 -60 0
-46 -61 0
-47 -62 0
-48 -63 0
-46 -70 0
-47 -71 0
-48 -72 0
-46 -79 0
-47 -80 0
-48 -81 0
-46 -82 0
-47 -83 0
-48 -84 0
-46 -85 0
-47 -86 0
-48 -87 0
-46 -106 0
-47 -107 0
-48 -108 0
-46 -127 0
-47 -128 0
-48 -129 0
-46 -145 0
-47 -146 0
-48 -147 0
-49 -55 0
-50 -56 0
-51 -57 0
-49 -58 0
-50 -59 0
-51 -60 0
-49 -70 0
-50 -71 0
-51 -72 0
-49 -76 0
-50 -77 0
-51 -78 0
-49 -85 0
-50 -86 0
-51 -87 0
-49 -106 0
-50 -107 0
-51 -108 0
-49 -118 0
-50 -119 0
-51 -120 0
-52 -55 0
-53 -56 0
-54 -57 0
-52 -73 0
-53 -74 0
-54 -75 0
-52 -88 0
-53 -89 0
-54 -90 0
-52 -106 0
-53 -107 0
-54 -108 0
-52 -109 0
-53 -110 0
-54 -111 0
-52 -124 0
-53 -125 0
-54 -126 0
-52 -133 0
-53 -134 0
-54 -135 0
-55 -58 0
-56 -59 0
-57 -60 0
-55 -67 0
-56 -68 0
-57 -69 0
-55 -112 0
-56 -113 0
-57 -114 0
-55 -142 0
-56 -143 0
-57 -144 0
-55 -148 0
-56 -149 0
-57 -150 0
-58 -61 0
-59 -62 0
-60 -63 0
-58 -109 0
-59 -110 0
-60 -111 0
-58 -115 0
-59 -116 0
-60 -117 0
-58 -133 0
-59 -134 0
-60 -135 0
-58 -139 0
-59 -140 0
-60 -141 0
-58 -145 0
-59 -146 0
-60 -147 0
-61 -82 0
-62 -83 0
-63 -84 0
-61 -100 0
-62 -101 0
-63 -102 0
-61 -109 0
-62 -110 0
-63 -111 0
-61 -121 0
-62 -122 0
-63 -123 0
-61 -124 0
-62 -125 0
-63 -126 0
-61 -127 0
-62 -128 0
-63 -129 0
-61 -130 0
-62 -131 0
-63 -132 0
-61 -136 0
-62 -137 0
-63 -138 0
-64 -97 0
-65 -98 0
-66 -99 0
-64 -103 0
-65 -104 0
-66 -105 0
-64 -112 0
-65 -113 0
-66 -114 0
-64 -115 0
-65 -116 0
-66 -117 0
-64 -118 0
-65 -119 0
-66 -120 0
-64 -130 0
-65 -131 0
-66 -132 0
-64 -145 0
-65 -146 0
-66 -147 0
-64 -148 0
-65 -149 0
-66 -150 0
-67 -118 0
-68 -119 0
-69 -120 0
-67 -133 0
-68 -134 0
-69 -135 0
-70 -82 0
-71 -83 0
-72 -84 0
-70 -85 0
-71 -86 0
-72 -87 0
-70 -88 0
-71 -89 0
-72 -90 0
-70 -115 0
-71 -116 0
-72 -117 0
-70 -124 0
-71 -125 0
-72 -126 0
-70 -139 0
-71 -140 0
-72 -141 0
-70 -145 0
-71 -146 0
-72 -147 0
-73 -97 0
-74 -98 0
-75 -99 0
-73 -106 0
-74 -107 0
-75 -108 0
-73 -124 0
-74 -125 0
-75 -126 0
-73 -127 0
-74 -128 0
-75 -129 0
-73 -142 0
-74 -143 0
-75 -144 0
-73 -145 0
-74 -146 0
-75 -147 0
-73 -148 0
-74 -149 0
-75 -150 0
-76 -88 0
-77 -89 0
-78 -90 0
-76 -100 0
-77 -101 0
-78 -102 0
-76 -115 0
-77 -116 0
-78 -117 0
-76 -124 0
-77 -125 0
-78 -126 0
-76 -127 0
-77 -128 0
-78 -129 0
-79 -85 0
-80 -86 0
-81 -87 0
-79 -100 0
-80 -101 0
-81 -102 0
-79 -109 0
-80 -110 0
-81 -111 0
-79 -118 0
-80 -119 0
-81 -120 0
-79 -121 0
-80 -122 0
-81 -123 0
-79 -130 0
-80 -131 0
-81 -132 0
-79 -145 0
-80 -146 0
-81 -147 0
-82 -127 0
-83 -128 0
-84 -129 0
-82 -139 0
-83 -140 0
-84 -141 0
-82 -148 0
-83 -149 0
-84 -150 0
-85 -97 0
-86 -98 0
-87 -99 0
-85 -106 0
-86 -107 0
-87 -108 0
-85 -130 0
-86 -131 0
-87 -132 0
-88 -118 0
-89 -119 0
-90 -120 0
-88 -124 0
-89 -125 0
-90 -126 0
-88 -127 0
-89 -128 0
-90 -129 0
-88 -133 0
-89 -134 0
-90 -135 0
-88 -139 0
-89 -140 0
-90 -141 0
-91 -97 0
-92 -98 0
-93 -99 0
-91 -115 0
-92 -116 0
-93 -117 0
-91 -124 0
-92 -125 0
-93 -126 0
-91 -130 0
-92 -131 0
-93 -132 0
-91 -136 0
-92 -137 0
-93 -138 0
-91 -142 0
-92 -143 0
-93 -144 0
-94 -97 0
-95 -98 0
-96 -99 0
-94 -133 0
-95 -134 0
-96 -135 0
-94 -145 0
-95 -146 0
-96 -147 0
-97 -106 0
-98 -107 0
-99 -108 0
-97 -109 0
-98 -110 0
-99 -111 0
-100 -124 0
-101 -125 0
-102 -126 0
-100 -136 0
-101 -137 0
-102 -138 0
-100 -145 0
-101 -146 0
-102 -147 0
-106 -109 0
-107 -110 0
-108 -111 0
-106 -136 0
-107 -137 0
-108 -138 0
-109 -142 0
-110 -143 0
-111 -144 0
-112 -115 0
-113 -116 0
-114 -117 0
-112 -118 0
-113 -119 0
-114 -120 0
-112 -124 0
-113 -125 0
-114 -126 0
-112 -136 0
-113 -137 0
-114 -138 0
-112 -139 0
-113 -140 0
-114 -141 0
-115 -118 0
-116 -119 0
-117 -120 0
-115 -121 0
-116 -122 0
-117 -123 0
-115 -124 0
-116 -125 0
-117 -126 0
-115 -127 0
-116 -128 0
-117 -129 0
-115 -136 0
-116 -137 0
-117 -138 0
-118 -121 0
-119 -122 0
-120 -123 0
-118 -124 0
-119 -125 0
-120 -126 0
-118 -127 0
-119 -128 0
-120 -129 0
-118 -145 0
-119 -146 0
-120 -147 0
-124 -127 0
-125 -128 0
-126 -129 0
-127 -136 0
-128 -137 0
-129 -138 0
-127 -142 0
-128 -143 0
-129 -144 0
-133 -139 0
-134 -140 0
-135 -141 0
-136 -148 0
-137 -149 0
-138 -150 0
-139 -145 0
-140 -146 0
-141 -147 0
-142 -145 0
-143 -146 0
-144 -147 0
-145 -148 0
-146 -149 0
-147 -150 0
